T = 30;
Dn = [19, 16, 11, 13, 9, 19, 19, 22, 16, 16, 11, 9, 12, 14, 20, 15, 19, 22, 19, 9, 20, 8, 20, 15, 16, 16, 17, 13, 13, 19];
Ds = [12, 7, 10, 7, 10, 10, 8, 8, 5, 11, 15, 14, 9, 6, 5, 10, 7, 6, 8, 6, 9, 13, 9, 6, 14, 9, 13, 7, 10, 6];
R = [12, 14, 21, 17, 21, 12, 21, 12, 10, 12, 17, 18, 14, 5, 18, 17, 5, 10, 15, 14, 11, 21, 19, 5, 6, 8, 7, 11, 13, 13];
f = [20, 8, 19, 15, 14, 16, 10, 7, 14, 13, 16, 14, 10, 21, 11, 17, 23, 8, 22, 8, 17, 7, 18, 14, 9, 19, 21, 11, 20, 10];
pn = [4, 4, 7, 3, 4, 6, 1, 3, 1, 4, 5, 3, 4, 5, 2, 6, 3, 5, 1, 5, 1, 4, 7, 2, 7, 2, 1, 2, 1, 3];
ps = [2, 4, 3, 5, 2, 2, 2, 4, 2, 3, 5, 1, 1, 4, 5, 2, 1, 4, 3, 3, 2, 2, 5, 2, 3, 3, 3, 2, 5, 3];
hn = [2, 3, 3, 3, 4, 4, 2, 4, 4, 2, 4, 3, 2, 2, 4, 4, 2, 4, 3, 3, 2, 4, 4, 3, 3, 2, 2, 4, 4, 2];
hs = [2, 3, 2, 3, 3, 2, 2, 2, 2, 3, 3, 3, 1, 3, 2, 3, 2, 1, 3, 3, 3, 1, 2, 2, 2, 3, 1, 1, 1, 2];
hr = [1, 1, 1, 1, 1, 1, 1, 1, 1, 1, 1, 1, 1, 1, 1, 1, 1, 1, 1, 1, 1, 1, 1, 1, 1, 1, 1, 1, 1, 1];
